100
100
666 14
642 14
122 14
463 24
60 2
635 20
521 21
96 14
223 2
872 10
296 9
737 14
785 5
908 10
350 12
159 15
602 1
930 25
516 17
673 25
720 9
571 18
81 16
931 4
169 2
265 15
912 1
103 22
333 12
581 7
200 14
48 3
539 4
227 5
72 1
981 17
262 4
384 17
569 16
997 15
819 12
906 5
614 10
426 21
721 6
627 20
97 1
424 12
354 25
393 1
252 24
569 13
629 2
207 24
969 3
638 12
816 18
516 5
902 19
375 24
651 4
893 22
731 16
734 12
317 1
214 21
851 7
785 4
85 16
28 3
546 17
839 11
560 6
142 13
999 17
787 25
222 6
748 2
699 6
388 17
959 3
287 11
734 22
640 18
414 19
222 11
35 12
672 21
470 13
759 18
681 22
469 4
927 17
558 2
49 22
344 7
250 5
168 8
53 9
153 19
